NAME: CMT12_2
TYPE: CVRP
COMMENT: 819.56 - Cluster Nr.2
DIMENSION: 18
CAPACITY: 200
EDGE_WEIGHT_TYPE: EUC_2D
NODE_COORD_TYPE: TWOD_COORDS
NODE_COORD_SECTION: 
16 40 50
5 35 30
4 28 30
7 32 30
8 25 30
14 33 35
13 26 32
2 33 32
10 47 35
12 45 35
6 30 30
15 48 30
1 25 35
17 35 32
3 45 30
9 30 35
18 30 32
11 28 35
DEPOT_SECTION: 
16
-1
DEMAND_SECTION: 
13 10
7 10
12 10
1 10
17 10
14 10
4 10
11 10
10 10
16 0
2 20
3 10
9 10
8 10
5 10
6 10
18 30
15 10
EOF
